1500
50
64 79
199 100
62 54
159 192
36 128
111 69
151 18
28 147
147 95
108 146
38 101
185 167
66 104
147 156
11 98
23 152
137 53
39 164
193 118
194 56
176 187
102 135
142 61
175 125
51 138
57 136
14 104
38 44
163 78
161 25
90 115
77 61
129 25
133 180
159 135
173 92
188 50
71 152
186 29
154 38
197 102
19 39
54 45
157 55
68 192
171 16
61 100
95 85
118 196
187 171